DIMENSION: 7
EDGE_WEIGHT_TYPE: EXPLICIT
EDGE_WEIGHT_FORMAT: FULL_MATRIX
EDGE_WEIGHT_SECTION:
32767 80 10 32767 69 32767 33 
80 32767 32 23 32767 32767 8 
10 32 32767 13 41 32767 32767 
32767 23 13 32767 32767 66 32767 
69 32767 41 32767 32767 32767 32767 
32767 32767 32767 66 32767 32767 3 
33 8 32767 32767 32767 3 32767 
EOF